169
0 116 151 68 103 125 30 140 124 78 
5 49 108 34 84 75 112 85 28 139 
55 152 45 32 69 156 144 105 146 89 
133 52 53 47 79 118 35 83 110 39 
137 74 13 160 80 61 86 44 88 70 
71 15 154 22 159 122 142 21 120 164 
10 150 148 101 20 128 40 1 121 62 
19 43 14 102 98 100 135 114 145 77 
167 134 24 26 132 76 42 6 91 123 
29 56 136 7 107 59 104 168 64 115 
92 157 126 58 153 161 11 17 149 23 
65 33 158 127 9 48 130 99 94 4 
147 82 143 90 3 113 67 27 163 72 
60 165 96 109 57 16 51 119 141 93 
155 38 111 46 41 37 8 54 36 95 
162 131 25 66 106 97 129 117 73 138 
12 31 18 166 81 2 63 87 50 
